Tried aggregator 1 time.
MIP Presolve eliminated 70960 rows and 46850 columns.
MIP Presolve modified 64210 coefficients.
Reduced MIP has 33220 rows, 58180 columns, and 320830 nonzeros.
Reduced MIP has 57180 binaries, 0 generals, 0 SOSs, and 0 indicators.
Presolve time = 0.27 sec. (193.17 ticks)
Found incumbent of value 2885.481188 after 0.61 sec. (444.08 ticks)
Probing time = 0.18 sec. (26.94 ticks)
Tried aggregator 1 time.
Reduced MIP has 33220 rows, 58180 columns, and 320830 nonzeros.
Reduced MIP has 57180 binaries, 0 generals, 0 SOSs, and 0 indicators.
Presolve time = 0.19 sec. (124.06 ticks)
Probing time = 0.09 sec. (24.51 ticks)
Clique table members: 189670.
MIP emphasis: balance optimality and feasibility.
MIP search method: dynamic search.
Parallel mode: deterministic, using up to 10 threads.
Root relaxation solution time = 1.24 sec. (751.65 ticks)

        Nodes                                         Cuts/
   Node  Left     Objective  IInf  Best Integer    Best Bound    ItCnt     Gap

*     0+    0                         2885.4812        0.0000           100.00%
      0     0      819.0075   323     2885.4812      819.0075        0   71.62%
      0     0      819.0075   286     2885.4812      Cuts: 91      529   71.62%
      0     0      819.0075   297     2885.4812      Cuts: 75     1142   71.62%
      0     0      819.0075   281     2885.4812      Cuts: 61     1751   71.62%
      0     0      819.0075   258     2885.4812      Cuts: 72     2606   71.62%
      0     0      819.0075   301     2885.4812      Cuts: 60     3589   71.62%
      0     2      819.0075   301     2885.4812      819.0075     3589   71.62%
Elapsed time = 19.93 sec. (17756.26 ticks, tree = 0.00 MB, solutions = 1)
      1     3      819.1844   271     2885.4812      819.0075     5208   71.62%
      2     4      821.2449   259     2885.4812      819.0075     6661   71.62%
      3     5      849.2717   260     2885.4812      819.0075     8255   71.62%
      4     6      820.0929   277     2885.4812      819.0075     9632   71.62%
      5     7      888.4248   263     2885.4812      819.0075    10412   71.62%
      6     8      849.9422   261     2885.4812      819.0075    13043   71.62%
      7     9      821.0575   267     2885.4812      820.0934    22177   71.58%
      8    10      850.4777   241     2885.4812      820.0934    30980   71.58%
      9    11      854.4312   269     2885.4812      820.0934    41615   71.58%
     10    12      888.6818   297     2885.4812      820.0934    50698   71.58%
Elapsed time = 28.33 sec. (25590.54 ticks, tree = 0.00 MB, solutions = 1)
     12    14      821.6871   288     2885.4812      820.0934    62116   71.58%
     13    15      858.5092   234     2885.4812      820.0934    63678   71.58%
     14    16      888.8144   224     2885.4812      820.0934    65964   71.58%
     15    17      891.0169   235     2885.4812      820.0934    67911   71.58%
     16    18      851.6163   257     2885.4812      821.0575    70770   71.55%
     17    19      850.4777   205     2885.4812      821.0575    72405   71.55%
     18    20      858.5092   171     2885.4812      821.0575    74129   71.55%
     19    21      891.5110   251     2885.4812      821.0575    77543   71.55%
     20    22      892.5929   238     2885.4812      821.0575    79539   71.55%
*    21+   21                         1008.1861      821.0575            18.56%
*    21+   21                          998.3915      821.0575            17.76%
     21    23      864.0840   257      998.3915      821.0575    82019   17.76%
Elapsed time = 36.26 sec. (32500.05 ticks, tree = 0.00 MB, solutions = 1)
     29    31      857.0824   277      998.3915      821.2449    90641   17.74%
     30    32      855.3326   226      998.3915      821.2449    91238   17.74%
     31    33      860.6972   179      998.3915      821.2449    91682   17.74%
     32    34      895.5890   226      998.3915      821.2449    92156   17.74%
     33    35      895.8173   202      998.3915      821.2449    92900   17.74%
     34    36      868.1620   240      998.3915      821.2449    93956   17.74%
     35    37      892.2821   302      998.3915      821.2449    95437   17.74%
     36    38      893.7519   240      998.3915      821.2449    96272   17.74%
     37    39      852.0057   210      998.3915      821.2449    97071   17.74%
     38    40      888.3873   239      998.3915      821.2449    98254   17.74%
Elapsed time = 38.77 sec. (34477.62 ticks, tree = 0.00 MB, solutions = 9)
     59    61      843.4353   267      998.3915      821.2449   106415   17.74%
     63    65      897.5762   206      998.3915      821.2449   108053   17.74%
     64    66      869.1667   187      998.3915      821.2449   108695   17.74%
     65    67      893.5221   236      998.3915      821.2449   109558   17.74%
     68    70      890.9748   220      998.3915      821.2449   110862   17.74%
     69    71      851.6694   246      998.3915      821.2449   111214   17.74%
     73    75      898.1188   205      998.3915      821.2449   112761   17.74%
     74    76      870.8276   141      998.3915      821.2449   113505   17.74%
     75    77      893.5221   190      998.3915      821.2449   113585   17.74%
     78    80      890.9748   201      998.3915      821.2449   114333   17.74%
Elapsed time = 40.62 sec. (35924.05 ticks, tree = 0.00 MB, solutions = 9)
     79    81      886.1438   256      998.3915      821.2449   115905   17.74%
     83    85      898.1377   176      998.3915      821.2449   116612   17.74%
     85    87      922.1199   212      998.3915      821.2449   119383   17.74%
     89    91      851.6694   253      998.3915      821.2449   120412   17.74%
     93    93      934.5306   154      998.3915      821.2449   121431   17.74%
     99    99      872.8282   146      998.3915      821.2449   124768   17.74%
    101   101      898.1377   169      998.3915      821.2449   125701   17.74%
    102   102      870.8276    80      998.3915      821.2449   125721   17.74%
    107   105      861.9904    94      998.3915      821.2449   126602   17.74%
    109   107      871.6432    74      998.3915      821.2449   126733   17.74%
Elapsed time = 42.57 sec. (36932.25 ticks, tree = 0.00 MB, solutions = 9)
*   154   137      integral     0      873.0038      821.2449   136660    5.93%
    186    63      853.8271   236      873.0038      821.2449   142425    5.93%
    187    64      864.2186   154      873.0038      821.2449   143127    5.93%
    188    65      866.2785    48      873.0038      821.2449   143246    5.93%
    189    66      825.7652   216      873.0038      821.2449   144219    5.93%
    190    67      851.0599   261      873.0038      821.2449   145492    5.93%
    191    68      850.2980   242      873.0038      821.2449   146733    5.93%
    192    67        cutoff            873.0038      821.2449   147820    5.93%
    193    68      855.2617   264      873.0038      821.2449   148724    5.93%
    194    67        cutoff            873.0038      821.2449   148751    5.93%
    195    68      857.4639   303      873.0038      821.2449   150265    5.93%
Elapsed time = 45.10 sec. (39859.03 ticks, tree = 0.00 MB, solutions = 10)
*   198    67      integral     0      863.3510      821.2449   151355    4.88%
    220    79        cutoff            863.3510      821.2449   165744    4.88%
    229    84      858.9515   132      863.3510      821.2449   169737    4.88%
    230    85      855.1379   210      863.3510      821.2449   170361    4.88%
    239    88      825.7652   110      863.3510      821.2449   173124    4.88%
    240    89      855.4213   219      863.3510      821.2449   173311    4.88%
    249    94        cutoff            863.3510      821.2449   177091    4.88%
    250    95      859.3217   185      863.3510      821.2449   177590    4.88%
    253    98      858.5310   238      863.3510      821.2449   178906    4.88%
    259   103      825.7652   110      863.3510      821.2449   180268    4.88%
    260   104      862.7675   200      863.3510      821.2449   180439    4.88%
Elapsed time = 47.12 sec. (41288.43 ticks, tree = 0.00 MB, solutions = 10)
    336   133      851.6694   196      863.3510      821.2449   197894    4.88%
    346   137      851.7221   208      863.3510      821.2449   200767    4.88%
    356   139      855.8531   167      863.3510      821.2449   202285    4.88%
    366   143      855.8531   141      863.3510      821.2449   203673    4.88%
    376   145      859.9312   114      863.3510      821.2449   205471    4.88%
    379   146      848.2745    90      863.3510      821.2449   206311    4.88%
    383   148        cutoff            863.3510      821.2449   207649    4.88%
    386   151      860.9519   112      863.3510      821.2449   208276    4.88%
    389   154      830.7645    52      863.3510      821.2449   208584    4.88%
    393   156    infeasible            863.3510      821.2449   208943    4.88%
Elapsed time = 50.71 sec. (42255.01 ticks, tree = 0.00 MB, solutions = 10)
    396   157    infeasible            863.3510      821.2449   209195    4.88%
    406   165      860.9519   112      863.3510      821.2449   211369    4.88%
    416   161        cutoff            863.3510      821.2449   212593    4.88%
    426   165      860.9519   112      863.3510      821.2449   213336    4.88%
    436   167        cutoff            863.3510      821.2449   215215    4.88%
    446   175      860.9519    84      863.3510      821.2449   217872    4.88%
    453   180      867.1322   172      863.3510      821.2449   218861    4.88%
    456   183      860.9519    62      863.3510      821.2449   219074    4.88%
    463   190      867.1322   165      863.3510      821.2449   220568    4.88%
    466   193      860.9519    64      863.3510      821.2449   220688    4.88%
Elapsed time = 51.32 sec. (43957.90 ticks, tree = 0.00 MB, solutions = 10)
*   519   186      integral     0      830.8973      821.2449   228471    1.16%
    943     9        cutoff            830.8973      825.4286   264262    0.66%
    944    10      829.5067   150      830.8973      825.4286   264852    0.66%
    945    11      829.2464   102      830.8973      825.4286   264873    0.66%
    946    10        cutoff            830.8973      825.4286   264874    0.66%
    947     9        cutoff            830.8973      825.4286   264875    0.66%
    948     8        cutoff            830.8973      825.4286   264930    0.66%
    949     9      827.4793   194      830.8973      825.4286   265579    0.66%
    950     8    infeasible            830.8973      825.4286   265656    0.66%
    951     7        cutoff            830.8973      825.4286   265766    0.66%
*   971+   17                          830.4550      825.4286             0.61%
*  1004    14      integral     0      828.9369      825.4286   267601    0.42%

Cover cuts applied:  2
Implied bound cuts applied:  280
Flow cuts applied:  56
Mixed integer rounding cuts applied:  68
Lift and project cuts applied:  1
Gomory fractional cuts applied:  18

Root node processing (before b&c):
  Real time             =   19.59 sec. (17570.04 ticks)
Parallel b&c, 10 threads:
  Real time             =   34.67 sec. (28975.78 ticks)
  Sync time (average)   =   12.14 sec.
  Wait time (average)   =   13.28 sec.
                          ------------
Total (root+branch&cut) =   54.26 sec. (46545.82 ticks)
Status: Optimal
Obj: 828.937
Vehicles: 10
Time: 54.262
